certificates/rado_a7_c296_N42.cnf
c Rad2 upper bound instance: x1 + 7*x2 - x3 = 296, interval [1,42]
p cnf 42 270
1 3 42 0
-1 -3 -42 0
2 4 42 0
-2 -4 -42 0
3 5 42 0
-3 -5 -42 0
4 6 42 0
-4 -6 -42 0
5 7 42 0
-5 -7 -42 0
6 8 42 0
-6 -8 -42 0
7 9 42 0
-7 -9 -42 0
1 10 41 0
-1 -10 -41 0
8 10 42 0
-8 -10 -42 0
2 11 41 0
-2 -11 -41 0
9 11 42 0
-9 -11 -42 0
3 12 41 0
-3 -12 -41 0
10 12 42 0
-10 -12 -42 0
4 13 41 0
-4 -13 -41 0
11 13 42 0
-11 -13 -42 0
5 14 41 0
-5 -14 -41 0
12 14 42 0
-12 -14 -42 0
6 15 41 0
-6 -15 -41 0
13 15 42 0
-13 -15 -42 0
7 16 41 0
-7 -16 -41 0
14 16 42 0
-14 -16 -42 0
1 17 40 0
-1 -17 -40 0
8 17 41 0
-8 -17 -41 0
15 17 42 0
-15 -17 -42 0
2 18 40 0
-2 -18 -40 0
9 18 41 0
-9 -18 -41 0
16 18 42 0
-16 -18 -42 0
3 19 40 0
-3 -19 -40 0
10 19 41 0
-10 -19 -41 0
17 19 42 0
-17 -19 -42 0
4 20 40 0
-4 -20 -40 0
11 20 41 0
-11 -20 -41 0
18 20 42 0
-18 -20 -42 0
5 21 40 0
-5 -21 -40 0
12 21 41 0
-12 -21 -41 0
19 21 42 0
-19 -21 -42 0
6 22 40 0
-6 -22 -40 0
13 22 41 0
-13 -22 -41 0
20 22 42 0
-20 -22 -42 0
7 23 40 0
-7 -23 -40 0
14 23 41 0
-14 -23 -41 0
21 23 42 0
-21 -23 -42 0
1 24 39 0
-1 -24 -39 0
8 24 40 0
-8 -24 -40 0
15 24 41 0
-15 -24 -41 0
22 24 42 0
-22 -24 -42 0
2 25 39 0
-2 -25 -39 0
9 25 40 0
-9 -25 -40 0
16 25 41 0
-16 -25 -41 0
23 25 42 0
-23 -25 -42 0
3 26 39 0
-3 -26 -39 0
10 26 40 0
-10 -26 -40 0
17 26 41 0
-17 -26 -41 0
24 26 42 0
-24 -26 -42 0
4 27 39 0
-4 -27 -39 0
11 27 40 0
-11 -27 -40 0
18 27 41 0
-18 -27 -41 0
25 27 42 0
-25 -27 -42 0
5 28 39 0
-5 -28 -39 0
12 28 40 0
-12 -28 -40 0
19 28 41 0
-19 -28 -41 0
26 28 42 0
-26 -28 -42 0
6 29 39 0
-6 -29 -39 0
13 29 40 0
-13 -29 -40 0
20 29 41 0
-20 -29 -41 0
27 29 42 0
-27 -29 -42 0
7 30 39 0
-7 -30 -39 0
14 30 40 0
-14 -30 -40 0
21 30 41 0
-21 -30 -41 0
28 30 42 0
-28 -30 -42 0
1 31 38 0
-1 -31 -38 0
8 31 39 0
-8 -31 -39 0
15 31 40 0
-15 -31 -40 0
22 31 41 0
-22 -31 -41 0
29 31 42 0
-29 -31 -42 0
2 32 38 0
-2 -32 -38 0
9 32 39 0
-9 -32 -39 0
16 32 40 0
-16 -32 -40 0
23 32 41 0
-23 -32 -41 0
30 32 42 0
-30 -32 -42 0
3 33 38 0
-3 -33 -38 0
10 33 39 0
-10 -33 -39 0
17 33 40 0
-17 -33 -40 0
24 33 41 0
-24 -33 -41 0
31 33 42 0
-31 -33 -42 0
4 34 38 0
-4 -34 -38 0
11 34 39 0
-11 -34 -39 0
18 34 40 0
-18 -34 -40 0
25 34 41 0
-25 -34 -41 0
32 34 42 0
-32 -34 -42 0
5 35 38 0
-5 -35 -38 0
12 35 39 0
-12 -35 -39 0
19 35 40 0
-19 -35 -40 0
26 35 41 0
-26 -35 -41 0
33 35 42 0
-33 -35 -42 0
6 36 38 0
-6 -36 -38 0
13 36 39 0
-13 -36 -39 0
20 36 40 0
-20 -36 -40 0
27 36 41 0
-27 -36 -41 0
34 36 42 0
-34 -36 -42 0
7 37 38 0
-7 -37 -38 0
14 37 39 0
-14 -37 -39 0
21 37 40 0
-21 -37 -40 0
28 37 41 0
-28 -37 -41 0
35 37 42 0
-35 -37 -42 0
1 37 38 0
-1 -37 -38 0
8 38 0
-8 -38 0
15 38 39 0
-15 -38 -39 0
22 38 40 0
-22 -38 -40 0
29 38 41 0
-29 -38 -41 0
36 38 42 0
-36 -38 -42 0
2 37 39 0
-2 -37 -39 0
9 38 39 0
-9 -38 -39 0
16 39 0
-16 -39 0
23 39 40 0
-23 -39 -40 0
30 39 41 0
-30 -39 -41 0
37 39 42 0
-37 -39 -42 0
3 37 40 0
-3 -37 -40 0
10 38 40 0
-10 -38 -40 0
17 39 40 0
-17 -39 -40 0
24 40 0
-24 -40 0
31 40 41 0
-31 -40 -41 0
38 40 42 0
-38 -40 -42 0
4 37 41 0
-4 -37 -41 0
11 38 41 0
-11 -38 -41 0
18 39 41 0
-18 -39 -41 0
25 40 41 0
-25 -40 -41 0
32 41 0
-32 -41 0
39 41 42 0
-39 -41 -42 0
5 37 42 0
-5 -37 -42 0
12 38 42 0
-12 -38 -42 0
19 39 42 0
-19 -39 -42 0
26 40 42 0
-26 -40 -42 0
33 41 42 0
-33 -41 -42 0
40 42 0
-40 -42 0
