certificates/rado_a7_c296_N42.drat
-42 0
40 0
-24 0
22 0
26 0
-6 0
-38 0
-10 0
4 0
8 0
36 0
12 0
-20 0
-28 0
18 0
30 0
-2 0
-34 0
-14 0
32 0
16 0
0
